p cnf 42 135
-1 2 -3 0
1 -2 -3 0
-1 -2 3 0
1 2 3 0
-4 5 0
4 5 0
-6 -3 0
-6 5 0
3 -5 6 0
7 8 -9 0
-7 -8 -9 0
7 -8 9 0
-7 8 9 0
-9 10 0
9 10 0
11 6 0
11 10 0
-6 -10 -11 0
12 4 0
12 -9 0
-4 9 -12 0
14 -12 0
14 -13 0
12 13 -14 0
-15 -14 0
-15 12 0
14 -12 15 0
16 8 0
16 -15 0
-8 15 -16 0
-17 18 -19 0
17 -18 -19 0
-17 -18 19 0
17 18 19 0
-19 17 -20 0
19 -17 -20 0
-19 -17 20 0
19 17 20 0
-21 14 0
-21 -20 0
-14 20 21 0
-22 -5 0
-22 -19 0
5 19 22 0
22 3 -23 0
-22 -3 -23 0
22 -3 23 0
-22 3 23 0
24 -21 0
24 23 0
21 -23 -24 0
26 8 0
26 -25 0
-8 25 -26 0
27 -24 0
27 -26 0
24 26 -27 0
28 25 0
28 12 0
-25 -12 -28 0
22 -8 -30 0
-22 8 -30 0
22 8 30 0
-22 -8 30 0
30 22 -31 0
-30 -22 -31 0
30 -22 31 0
-30 22 31 0
-29 31 -32 0
29 -31 -32 0
-29 -31 32 0
29 31 32 0
1 13 -33 0
-1 -13 -33 0
1 -13 33 0
-1 13 33 0
-34 13 0
-34 9 0
-13 -9 34 0
35 33 0
35 -34 0
-33 34 -35 0
36 25 0
36 -9 0
-25 9 -36 0
-37 -35 0
-37 36 0
35 -36 37 0
38 -32 0
38 37 0
32 -37 -38 0
39 -28 0
39 38 0
28 -38 -39 0
-40 -27 0
-40 -39 0
27 39 40 0
-41 16 0
-41 -40 0
-16 40 41 0
42 11 0
42 41 0
-11 -41 -42 0
-31 40 36 0
9 14 -27 -37 0
25 -23 0
-19 -18 0
13 36 27 0
15 28 -2 33 0
-3 34 0
27 5 14 8 16 0
38 -35 -7 -5 26 0
22 39 0
33 31 37 0
-38 -16 -1 36 -21 0
-38 5 11 -13 0
18 10 -11 0
32 39 28 13 -12 0
35 -10 -19 -41 -9 -42 0
-13 6 0
-22 7 29 0
-36 -42 -32 -18 39 0
-1 -31 22 0
17 -3 0
42 29 -31 0
-25 39 26 -37 -17 15 0
38 21 0
33 14 -11 0
39 33 -36 0
-14 31 0
8 -22 10 -34 0
-25 -4 -33 29 -7 0
2 -34 -22 33 25 18 0
-13 37 -17 -25 0
42 0
